NAME: brazil58
TYPE: TSP
COMMENT: 6 cities in Brazil
DIMENSION: 6
EDGE_WEIGHT_TYPE: EXPLICIT
EDGE_WEIGHT_FORMAT: UPPER_ROW 
EDGE_WEIGHT_SECTION
29 27 24 16 11 61
3 26 6 1 46
20 7 8 45
28 34 60
12 47
9
EOF
